SAT
88 59 66 -40 -1 -83 49 86 -2 99 -32 39 58 -92 76 100 33 -75 84 -12 61 9 67 69 18 79 -45 -62 -68 43 -30 -72 -41 -71 -19 74 51 50 -28 11 22 85 93 7 -70 -65 89 -90 55 87 -56 44 73 46 -80 -24 -78 -5 -52 -3 -8 -37 -20 -14 23 34 -54 -53 95 57 38 -81 -63 -26 91 27 -97 -31 -21 15 10 -77 -42 -29 25 60 13 -64 6 -96 -4 -94 16 82 -47 98 -17 -36 48 -35 0
